NAME : LPS-n15-m322
COMMENT : (Lartu-Peter-Santi Plot, instance 5122 out of 39200. 15 customers.)
TYPE : CVRP
DIMENSION : 15
EDGE_WEIGHT_TYPE : EUC_2D
CAPACITY : 93
NODE_COORD_SECTION
 1 86 68
 2 68 19
 3 37 22
 4 57 23
 5 49 94
 6 58 46
 7 86 16
 8 63 70
 9 68 65
 10 19 34
 11 98 11
 12 58 38
 13 62 42
 14 46 16
 15 22 56
DEMAND_SECTION
1 0
2 45
3 59
4 40
5 52
6 69
7 40
8 56
9 88
10 28
11 51
12 67
13 32
14 1
15 44
DEPOT_SECTION
 1
 -1
EOF
